p edge 237 232
e 1 2
e 1 3
e 1 4
e 1 5
e 1 6
e 1 7
e 1 8
e 1 9
e 1 10
e 1 11
e 1 12
e 1 13
e 1 14
e 1 15
e 1 16
e 1 17
e 1 18
e 1 19
e 1 20
e 21 22
e 21 23
e 21 24
e 21 25
e 21 26
e 21 27
e 21 28
e 21 29
e 21 30
e 21 31
e 21 32
e 21 33
e 21 34
e 21 35
e 21 36
e 21 37
e 21 38
e 21 39
e 21 40
e 21 41
e 21 42
e 21 43
e 21 44
e 21 45
e 21 46
e 21 47
e 21 48
e 21 49
e 21 50
e 21 51
e 21 52
e 21 53
e 21 54
e 21 55
e 21 56
e 21 57
e 21 58
e 21 59
e 21 60
e 21 61
e 21 62
e 21 63
e 21 64
e 21 65
e 21 66
e 21 67
e 21 68
e 21 69
e 21 70
e 21 71
e 21 72
e 21 73
e 21 74
e 21 75
e 21 76
e 21 77
e 21 78
e 21 79
e 21 80
e 21 81
e 21 82
e 21 83
e 21 84
e 21 85
e 21 86
e 21 87
e 21 88
e 21 89
e 90 91
e 90 92
e 90 93
e 90 94
e 90 95
e 90 96
e 90 97
e 90 98
e 90 99
e 90 100
e 90 101
e 90 102
e 90 103
e 90 104
e 90 105
e 90 106
e 90 107
e 90 108
e 90 109
e 90 110
e 90 111
e 90 112
e 90 113
e 90 114
e 90 115
e 90 116
e 90 117
e 90 118
e 90 119
e 90 120
e 90 121
e 90 122
e 90 123
e 90 124
e 90 125
e 90 126
e 90 127
e 90 128
e 90 129
e 90 130
e 90 131
e 90 132
e 90 133
e 90 134
e 90 135
e 90 136
e 90 137
e 90 138
e 90 139
e 90 140
e 90 141
e 90 142
e 90 143
e 90 144
e 90 145
e 90 146
e 90 147
e 90 148
e 90 149
e 90 150
e 90 151
e 90 152
e 90 153
e 90 154
e 90 155
e 90 156
e 90 157
e 90 158
e 90 159
e 90 160
e 90 161
e 90 162
e 90 163
e 90 164
e 90 165
e 90 166
e 90 167
e 90 168
e 90 169
e 90 170
e 171 172
e 171 173
e 171 174
e 171 175
e 171 176
e 171 177
e 171 178
e 171 179
e 171 180
e 171 181
e 171 182
e 171 183
e 171 184
e 171 185
e 171 186
e 171 187
e 171 188
e 171 189
e 171 190
e 171 191
e 171 192
e 171 193
e 171 194
e 171 195
e 171 196
e 197 198
e 197 199
e 197 200
e 197 201
e 197 202
e 197 203
e 197 204
e 197 205
e 197 206
e 197 207
e 197 208
e 197 209
e 197 210
e 197 211
e 197 212
e 197 213
e 197 214
e 197 215
e 197 216
e 197 217
e 197 218
e 197 219
e 197 220
e 197 221
e 197 222
e 197 223
e 197 224
e 197 225
e 197 226
e 197 227
e 197 228
e 197 229
e 197 230
e 197 231
e 197 232
e 197 233
e 197 234
e 197 235
e 197 236
e 197 237
